p cnf 560 714
-3  -1  2  0
-5  -3  4  0
-13  11  -12  0
-17  -15  -16  0
21  19  20  0
23  -21  -22  0
25  -23  24  0
27  25  26  0
-31  -29  30  0
33  -31  -32  0
37  35  36  0
39  -37  -38  0
41  -39  -40  0
-49  47  -48  0
55  53  54  0
-57  -55  -56  0
-61  -59  -60  0
-63  -61  62  0
-71  -69  -70  0
-77  75  76  0
-81  -79  80  0
85  83  -84  0
-89  87  88  0
-91  89  90  0
95  -93  94  0
-97  95  96  0
-101  -99  100  0
-105  -103  -104  0
107  -105  -106  0
-109  -107  108  0
117  -115  116  0
119  -117  118  0
-123  -121  122  0
-125  -123  124  0
129  127  128  0
131  -129  -130  0
-135  -133  134  0
-139  -137  138  0
143  141  142  0
-145  -143  144  0
149  147  148  0
-151  149  -150  0
155  153  154  0
-159  -157  158  0
161  159  -160  0
163  -161  -162  0
-165  -163  164  0
169  167  168  0
171  169  170  0
-173  171  172  0
-175  173  174  0
177  175  -176  0
179  177  -178  0
185  -183  184  0
189  187  -188  0
191  -189  -190  0
-193  -191  192  0
-195  -193  194  0
197  -195  196  0
-199  197  198  0
-203  -201  -202  0
-209  -207  208  0
-213  -211  -212  0
-215  213  -214  0
-217  215  -216  0
-221  219  220  0
-223  -221  222  0
-225  223  224  0
227  225  226  0
229  227  -228  0
-231  -229  -230  0
-233  -231  -232  0
235  233  -234  0
-239  237  238  0
-241  239  240  0
-243  -241  -242  0
-245  -243  -244  0
251  249  -250  0
-255  -253  254  0
-257  -255  256  0
261  259  -260  0
-273  271  272  0
275  -273  274  0
279  277  -278  0
-283  281  282  0
285  -283  -284  0
-287  285  286  0
-291  289  -290  0
299  -297  298  0
-301  -299  -300  0
305  303  -304  0
-307  -305  -306  0
-311  -309  310  0
313  311  -312  0
315  -313  314  0
-317  -315  -316  0
-323  321  322  0
331  329  -330  0
-333  -331  -332  0
-335  -333  -334  0
337  -335  336  0
-339  337  338  0
341  -339  340  0
343  -341  -342  0
-349  -347  348  0
-363  -361  362  0
-365  363  364  0
369  -367  368  0
-371  -369  -370  0
-375  373  -374  0
379  -377  -378  0
-383  381  -382  0
-385  -383  384  0
389  -387  388  0
-393  -391  392  0
-397  -395  396  0
403  -401  -402  0
-409  407  408  0
411  -409  410  0
413  -411  -412  0
417  -415  416  0
-421  -419  420  0
423  -421  422  0
-425  423  -424  0
-427  425  426  0
-429  427  428  0
431  429  -430  0
-433  -431  432  0
443  441  -442  0
449  447  448  0
-451  449  450  0
455  -453  454  0
-459  457  458  0
-461  459  -460  0
-463  461  -462  0
-465  463  464  0
-467  465  -466  0
469  467  -468  0
-477  -475  476  0
481  -479  -480  0
483  481  -482  0
487  485  486  0
-489  -487  488  0
-491  -489  -490  0
-493  491  492  0
495  -493  494  0
-501  499  -500  0
503  -501  -502  0
-509  -507  508  0
-515  513  514  0
-519  -517  518  0
-525  -523  -524  0
-527  -525  -526  0
-529  527  528  0
-537  535  -536  0
-539  537  538  0
543  -541  -542  0
545  -543  -544  0
547  545  546  0
549  547  548  0
-551  549  -550  0
555  -553  554  0
-559  -557  558  0
-4  3  -2  0
4  3  1  0
-4  -1  -2  0
6  5  -3  0
-6  3  -4  0
-8  7  6  0
10  -9  8  0
-10  9  7  0
-10  -7  8  0
-12  -11  9  0
-12  9  -10  0
14  -13  -11  0
16  -15  14  0
-16  13  -14  0
18  -17  16  0
-18  17  -15  0
-18  -15  -16  0
-20  -19  17  0
-22  -21  20  0
-22  21  -19  0
24  -23  -22  0
24  23  21  0
24  21  22  0
26  25  -24  0
28  -27  26  0
-30  -27  28  0
32  31  30  0
34  -33  -32  0
-36  35  -34  0
38  -37  36  0
-38  -37  35  0
40  -39  -38  0
40  39  37  0
42  -41  40  0
42  41  -39  0
-44  43  41  0
44  -41  -42  0
-46  -45  44  0
46  45  -43  0
48  -47  46  0
-48  47  -45  0
50  49  -47  0
50  47  48  0
-52  -51  50  0
-54  -53  -52  0
54  -53  51  0
-54  -51  -52  0
56  -55  54  0
58  57  56  0
-58  57  55  0
-58  55  -56  0
60  59  58  0
60  -57  -58  0
-62  61  60  0
62  -61  -59  0
-62  -59  60  0
64  -63  -62  0
64  63  -61  0
-66  -65  64  0
66  -65  63  0
68  -67  -66  0
68  -67  -65  0
-68  65  -66  0
-70  -69  -67  0
-70  -67  -68  0
-72  -71  69  0
72  -69  70  0
74  -73  72  0
-74  -73  -71  0
-74  71  72  0
-76  75  -74  0
-76  75  -73  0
78  -77  76  0
-78  -77  75  0
78  75  -76  0
-80  -79  77  0
-80  -77  -78  0
82  -81  -79  0
84  -83  -81  0
-84  81  82  0
86  -85  -84  0
86  85  83  0
-86  83  84  0
-88  87  85  0
-90  -89  87  0
-90  87  -88  0
-92  -91  -90  0
94  93  -91  0
-94  -91  -92  0
-96  -95  -93  0
-98  -97  95  0
-98  -95  96  0
100  -99  -97  0
100  97  98  0
102  -99  -100  0
104  103  -102  0
-104  103  -101  0
104  101  102  0
106  -105  104  0
-106  105  103  0
-106  -103  -104  0
108  105  106  0
110  109  -107  0
110  107  -108  0
112  -111  -110  0
-112  109  110  0
114  113  -111  0
-114  -111  112  0
-116  115  -114  0
-116  113  -114  0
118  -117  -115  0
118  -115  116  0
-120  119  118  0
120  -117  -118  0
-124  123  -122  0
-124  121  122  0
126  -125  123  0
128  -127  -126  0
-128  127  125  0
128  125  -126  0
-130  129  127  0
-132  -131  130  0
132  129  130  0
134  -133  132  0
134  131  132  0
136  135  134  0
-136  135  -133  0
-136  -133  134  0
138  137  -136  0
-138  137  -135  0
138  -135  136  0
140  -137  -138  0
142  141  140  0
142  141  -139  0
144  143  -142  0
-144  -141  -142  0
146  145  143  0
-148  -147  -146  0
-148  145  146  0
-150  149  -148  0
-150  -147  148  0
152  151  150  0
152  151  149  0
-152  -149  150  0
154  -153  -152  0
-154  -151  152  0
156  -155  154  0
-156  -155  -153  0
156  -153  -154  0
-158  157  156  0
158  157  155  0
158  -155  156  0
-160  159  -158  0
-160  -159  157  0
-160  -157  -158  0
-162  161  160  0
-164  163  161  0
-164  161  162  0
-166  165  -164  0
166  163  -164  0
168  167  -166  0
-168  -165  166  0
-170  169  -167  0
-170  167  168  0
-172  -171  170  0
-172  -169  -170  0
-174  173  172  0
174  173  171  0
174  -171  -172  0
-176  -175  -174  0
176  175  -173  0
176  173  174  0
-178  -177  176  0
180  179  -177  0
180  -177  178  0
-182  181  180  0
-182  181  -179  0
182  179  180  0
-184  -183  182  0
184  -183  -181  0
186  -185  -184  0
186  -185  183  0
186  183  184  0
188  -187  186  0
188  187  185  0
-190  -189  188  0
-190  -189  187  0
-190  187  188  0
192  189  -190  0
196  -195  -194  0
-196  -195  193  0
196  -193  194  0
200  199  197  0
202  -201  200  0
202  -201  199  0
202  199  200  0
-204  203  -201  0
204  201  202  0
-206  205  -204  0
-208  207  206  0
-208  205  206  0
210  -209  208  0
-210  -209  207  0
210  -207  208  0
212  -211  -210  0
212  209  -210  0
-214  213  211  0
-214  211  -212  0
-216  215  214  0
216  215  213  0
-216  213  214  0
218  -217  216  0
-218  217  -215  0
218  -215  -216  0
220  219  217  0
-222  -221  219  0
-222  -219  220  0
224  221  222  0
-226  225  224  0
226  -225  -223  0
-226  -223  -224  0
-228  227  226  0
-228  227  -225  0
-228  -225  -226  0
230  -229  227  0
230  -227  -228  0
-232  231  -230  0
232  231  229  0
-234  233  232  0
-234  -233  -231  0
234  -231  -232  0
-236  -235  233  0
-236  -233  -234  0
238  237  -236  0
-238  -237  -235  0
238  235  -236  0
-240  239  238  0
-240  -239  237  0
242  -241  -239  0
-242  239  -240  0
-244  -243  242  0
-246  245  -244  0
-246  243  -244  0
248  247  -245  0
248  -245  246  0
250  -249  -248  0
252  -249  -250  0
-254  253  252  0
-256  -255  253  0
258  257  256  0
258  257  255  0
-260  -259  258  0
-260  259  -257  0
-262  -261  260  0
-262  261  -259  0
262  -259  260  0
264  -263  262  0
264  -263  261  0
264  261  -262  0
-266  265  264  0
-266  -265  -263  0
-268  265  266  0
270  269  -268  0
270  -269  267  0
272  271  -270  0
272  271  -269  0
274  -273  272  0
-274  273  -271  0
-276  275  -274  0
-276  275  273  0
276  -273  274  0
278  277  276  0
278  -277  275  0
-280  279  278  0
-284  -283  -282  0
-284  283  -281  0
-286  285  284  0
286  -285  -283  0
-286  283  284  0
288  -285  286  0
290  289  288  0
-292  291  290  0
-294  -293  -292  0
-294  -293  -291  0
296  295  294  0
-296  -293  294  0
-298  297  -296  0
300  299  -298  0
-300  299  -297  0
300  -297  298  0
-302  301  300  0
302  -301  299  0
302  -299  -300  0
304  303  -302  0
304  -303  301  0
306  305  -303  0
-306  -303  -304  0
-308  307  305  0
308  305  -306  0
310  309  308  0
310  307  -308  0
-312  -311  -310  0
312  311  -309  0
-314  -313  312  0
314  -313  -311  0
316  -315  -314  0
-316  315  313  0
-316  313  314  0
318  -317  316  0
-318  -315  -316  0
320  -319  -318  0
320  317  318  0
322  -321  320  0
322  321  -319  0
-324  -323  -321  0
324  -321  322  0
326  -325  -324  0
-326  -325  -323  0
328  327  325  0
330  -329  327  0
-330  327  -328  0
332  331  330  0
-332  -331  -329  0
334  -333  -332  0
334  333  -331  0
336  -335  334  0
336  -335  333  0
338  -337  336  0
338  337  -335  0
-340  -339  337  0
340  -337  -338  0
342  -341  340  0
-342  -341  -339  0
344  -341  -342  0
-346  345  -344  0
-346  -345  -343  0
-346  -343  -344  0
-348  347  346  0
-348  -347  -345  0
348  -345  -346  0
-350  349  348  0
-352  351  -350  0
352  -351  -349  0
354  -353  352  0
354  -353  -351  0
354  -351  352  0
-356  -355  354  0
356  -355  -353  0
-356  353  -354  0
358  -357  -355  0
358  355  -356  0
360  359  -357  0
-362  361  -360  0
-362  -361  359  0
364  -363  -362  0
364  363  361  0
-364  -361  362  0
-366  365  364  0
366  -363  364  0
-368  367  -366  0
368  367  365  0
-368  -365  366  0
-370  369  368  0
-370  -369  367  0
-370  367  -368  0
-372  371  -369  0
372  -369  -370  0
374  373  372  0
-374  371  -372  0
-376  375  374  0
378  377  -375  0
378  375  -376  0
380  379  377  0
380  377  378  0
382  -381  -380  0
-382  -381  -379  0
382  -379  380  0
-384  -383  381  0
-386  385  383  0
-388  387  386  0
388  387  -385  0
-388  -385  -386  0
-390  387  -388  0
-392  391  390  0
-392  391  389  0
-392  -389  -390  0
394  393  391  0
-394  391  392  0
-396  395  394  0
-396  393  394  0
398  -397  -396  0
-398  395  -396  0
-400  -399  397  0
-400  397  -398  0
402  -401  -400  0
402  401  399  0
-404  -403  -402  0
-404  401  -402  0
-406  -403  404  0
408  -407  -406  0
408  -407  -405  0
410  409  408  0
410  407  -408  0
-412  -411  -410  0
-412  411  409  0
414  413  -411  0
414  -411  412  0
416  -415  413  0
416  413  414  0
-418  417  -416  0
418  417  -415  0
-418  -415  416  0
420  419  418  0
420  -419  -417  0
-420  -417  418  0
422  -421  -420  0
422  421  -419  0
422  419  -420  0
424  423  -421  0
-424  -421  422  0
426  -425  424  0
-426  423  -424  0
428  -427  426  0
430  -429  -427  0
430  -427  428  0
432  -431  -430  0
-434  -431  -432  0
-436  -435  433  0
436  -433  -434  0
-438  437  436  0
438  437  435  0
-440  439  437  0
-442  -441  -439  0
442  439  -440  0
444  443  442  0
444  443  -441  0
444  441  442  0
-446  -445  -444  0
446  -445  -443  0
-446  -443  -444  0
448  447  446  0
-448  -445  -446  0
-450  -449  448  0
450  -447  -448  0
452  451  449  0
-454  -453  452  0
-454  453  -451  0
456  455  -454  0
-456  -455  453  0
456  -453  454  0
458  -457  -456  0
458  -457  -455  0
460  -459  -458  0
460  -459  457  0
462  -461  -460  0
462  461  459  0
462  459  460  0
-464  463  -462  0
-464  463  -461  0
464  -461  462  0
-466  465  -464  0
-466  -465  463  0
468  467  -466  0
-468  -465  466  0
470  469  467  0
470  467  -468  0
472  -469  470  0
-474  473  472  0
-474  473  471  0
474  471  -472  0
-478  477  -476  0
-478  477  -475  0
478  -475  476  0
-480  -479  478  0
-482  -479  -480  0
-484  483  -482  0
484  -481  -482  0
-486  -485  -484  0
-486  -485  -483  0
486  483  -484  0
488  487  486  0
-488  -485  -486  0
490  489  488  0
490  489  -487  0
490  -487  -488  0
492  -491  490  0
-492  491  -489  0
-492  -489  490  0
494  493  -492  0
494  -493  491  0
-496  -493  -494  0
498  495  496  0
500  499  498  0
-500  -499  497  0
-500  -497  498  0
504  503  -502  0
504  503  -501  0
-504  501  502  0
506  505  504  0
-506  -505  503  0
508  507  -506  0
-508  -507  505  0
508  505  506  0
-510  -509  -508  0
-512  511  -510  0
512  511  -509  0
-512  509  -510  0
-514  -513  511  0
514  -511  512  0
-516  -513  -514  0
-518  517  516  0
518  -517  -515  0
520  -519  518  0
520  -517  518  0
-522  -521  520  0
-522  -519  -520  0
524  -523  521  0
-524  -521  522  0
526  525  524  0
-526  525  523  0
-526  523  524  0
-528  -527  -526  0
-528  -525  -526  0
532  -531  -530  0
534  -533  -532  0
534  -531  532  0
-536  -535  -533  0
536  533  534  0
538  -537  535  0
-538  -535  536  0
-540  -539  -537  0
-542  -541  540  0
-542  -541  -539  0
-542  -539  -540  0
544  543  -542  0
544  543  -541  0
546  -543  544  0
-548  547  546  0
-548  547  545  0
550  -547  548  0
-552  551  550  0
-552  551  549  0
552  -549  -550  0
554  553  552  0
554  553  -551  0
556  -555  554  0
556  553  -554  0
558  557  -556  0
-558  557  555  0
558  -555  556  0
-560  557  558  0
